SAT
1 -2 -3 -22 -34 -49 4 -5 -6 -10 -52 -58 7 -8 -9 -55 11 -12 -47 -59 60 -21 13 -14 -15 -28 -43 16 -17 -18 -46 48 19 -20 -37 23 -24 -35 36 -44 45 -39 38 -32 25 -26 -27 -40 29 -30 -53 54 31 -33 41 -42 50 -51 56 -57 0